(set-info :smt-lib-version 2.6)
(set-logic UF)
(set-info :source |
Generated by: Andrew Reynolds
Generated on: 2017-04-28
Generator: Sledgehammer, converted to v2.6 by CVC4
Application: Verfication goals in Isabelle
Target solver: CVC4, Z3
Publications: "A Decision Procedure for (Co)Datatypes" by Andrew Reynolds and Jasmin Blanchette, CADE 2015.
|)
(set-info :license "https://creativecommons.org/licenses/by/4.0/")
(set-info :category "industrial")
(set-info :status unknown)


(declare-sort A$ 0)
(declare-sort B$ 0)
(declare-sort Nat$ 0)
(declare-sort Nat_nat_fun$ 0)
(declare-sort Nat_bool_fun$ 0)
(declare-sort Nat_nat_bool_fun_fun$ 0)
(declare-sort A_b_prod$ 0)
(declare-sort A_b_prod_list$ 0)
(declare-sort Color$ 0)
(declare-sort A_b_rbt$ 0)
(declare-sort A_b_rbt_a_b_prod_list_prod$ 0)
(declare-fun fst$ (A_b_prod$) A$)
(declare-fun snd$ (A_b_prod$) B$)
(declare-fun pair$ (A$ B$) A_b_prod$)
(declare-fun nil$ () A_b_prod_list$)
(declare-fun hd$ (A_b_prod_list$) A_b_prod$)
(declare-fun tl$ (A_b_prod_list$) A_b_prod_list$)
(declare-fun cons$ (A_b_prod$ A_b_prod_list$) A_b_prod_list$)
(declare-fun r$ () Color$)
(declare-fun b$ () Color$)
(declare-fun empty$ () A_b_rbt$)
(declare-fun select$ (A_b_rbt$) Color$)
(declare-fun selecta$ (A_b_rbt$) A_b_rbt$)
(declare-fun selectb$ (A_b_rbt$) A$)
(declare-fun selectc$ (A_b_rbt$) B$)
(declare-fun selectd$ (A_b_rbt$) A_b_rbt$)
(declare-fun branch$ (Color$ A_b_rbt$ A$ B$ A_b_rbt$) A_b_rbt$)
(declare-fun fst$a (A_b_rbt_a_b_prod_list_prod$) A_b_rbt$)
(declare-fun snd$a (A_b_rbt_a_b_prod_list_prod$) A_b_prod_list$)
(declare-fun pair$a (A_b_rbt$ A_b_prod_list$) A_b_rbt_a_b_prod_list_prod$)
(declare-fun na$ () Nat$)
(declare-fun one$ () Nat$)
(declare-fun suc$ (Nat$) Nat$)
(declare-fun kvsa$ () A_b_prod_list$)
(declare-fun less$ (Nat$) Nat_bool_fun$)
(declare-fun plus$ (Nat$) Nat_nat_fun$)
(declare-fun size$ (A_b_prod_list$) Nat$)
(declare-fun take$ (Nat$ A_b_prod_list$) A_b_prod_list$)
(declare-fun minus$ (Nat$) Nat_nat_fun$)
(declare-fun append$ (A_b_prod_list$ A_b_prod_list$) A_b_prod_list$)
(declare-fun rotate$ (Nat$ A_b_prod_list$) A_b_prod_list$)
(declare-fun butlast$ (A_b_prod_list$) A_b_prod_list$)
(declare-fun fun_app$ (Nat_nat_fun$ Nat$) Nat$)
(declare-fun less_eq$ (Nat$) Nat_bool_fun$)
(declare-fun remdups$ (A_b_prod_list$) A_b_prod_list$)
(declare-fun rotate1$ (A_b_prod_list$) A_b_prod_list$)
(declare-fun antimono$ (Nat_nat_fun$) Bool)
(declare-fun fun_app$a (Nat_bool_fun$ Nat$) Bool)
(declare-fun fun_app$b (Nat_nat_bool_fun_fun$ Nat$) Nat_bool_fun$)
(declare-fun replicate$ (Nat$ A_b_prod$) A_b_prod_list$)
(declare-fun count_list$ (A_b_prod_list$ A_b_prod$) Nat$)
(declare-fun list_update$ (A_b_prod_list$ Nat$ A_b_prod$) A_b_prod_list$)
(declare-fun rbtreeify_f$ (Nat$ A_b_prod_list$) A_b_rbt_a_b_prod_list_prod$)
(assert (not (= (size$ (snd$a (rbtreeify_f$ na$ kvsa$))) (fun_app$ (minus$ (size$ kvsa$)) na$))))
(assert (fun_app$a (less_eq$ na$) one$))
(assert (fun_app$a (less_eq$ na$) (size$ kvsa$)))
(assert (forall ((?v0 Nat$) (?v1 Nat$) (?v2 Nat$)) (= (fun_app$ (minus$ (fun_app$ (minus$ ?v0) ?v1)) ?v2) (fun_app$ (minus$ (fun_app$ (minus$ ?v0) ?v2)) ?v1)) ))
(assert (forall ((?v0 A_b_prod_list$) (?v1 A_b_prod_list$)) (=> (not (= (size$ ?v0) (size$ ?v1))) (= (= ?v0 ?v1) false)) ))
(assert (forall ((?v0 Nat$)) (exists ((?v1 A_b_prod_list$)) (= (size$ ?v1) ?v0) ) ))
(assert (forall ((?v0 A_b_prod_list$) (?v1 A_b_prod_list$)) (=> (not (= (size$ ?v0) (size$ ?v1))) (not (= ?v0 ?v1))) ))
(assert (forall ((?v0 Nat$) (?v1 Nat$) (?v2 Nat$)) (= (fun_app$ (minus$ (fun_app$ (minus$ ?v0) ?v1)) ?v2) (fun_app$ (minus$ (fun_app$ (minus$ ?v0) ?v2)) ?v1)) ))
(assert (forall ((?v0 Nat$) (?v1 Nat$)) (=> (fun_app$a (less_eq$ ?v0) ?v1) (= (fun_app$ (minus$ ?v1) (fun_app$ (minus$ ?v1) ?v0)) ?v0)) ))
(assert (forall ((?v0 Nat$) (?v1 Nat$) (?v2 Nat$)) (=> (and (fun_app$a (less_eq$ ?v0) ?v1) (fun_app$a (less_eq$ ?v0) ?v2)) (= (= (fun_app$ (minus$ ?v1) ?v0) (fun_app$ (minus$ ?v2) ?v0)) (= ?v1 ?v2))) ))
(assert (forall ((?v0 Nat$) (?v1 Nat$) (?v2 Nat$)) (=> (and (fun_app$a (less_eq$ ?v0) ?v1) (fun_app$a (less_eq$ ?v0) ?v2)) (= (fun_app$ (minus$ (fun_app$ (minus$ ?v1) ?v0)) (fun_app$ (minus$ ?v2) ?v0)) (fun_app$ (minus$ ?v1) ?v2))) ))
(assert (forall ((?v0 Nat$) (?v1 Nat$) (?v2 Nat$)) (=> (and (fun_app$a (less_eq$ ?v0) ?v1) (fun_app$a (less_eq$ ?v0) ?v2)) (= (fun_app$a (less_eq$ (fun_app$ (minus$ ?v1) ?v0)) (fun_app$ (minus$ ?v2) ?v0)) (fun_app$a (less_eq$ ?v1) ?v2))) ))
(assert (forall ((?v0 Nat$)) (= (= one$ ?v0) (= ?v0 one$)) ))
(assert (forall ((?v0 Nat$) (?v1 Nat$)) (=> (= ?v0 ?v1) (fun_app$a (less_eq$ ?v0) ?v1)) ))
(assert (forall ((?v0 Nat$) (?v1 Nat$)) (=> (and (fun_app$a (less_eq$ ?v0) ?v1) (fun_app$a (less_eq$ ?v1) ?v0)) (= ?v0 ?v1)) ))
(assert (forall ((?v0 Nat$) (?v1 Nat$) (?v2 Nat$)) (=> (and (fun_app$a (less_eq$ ?v0) ?v1) (fun_app$a (less_eq$ ?v1) ?v2)) (fun_app$a (less_eq$ ?v0) ?v2)) ))
(assert (forall ((?v0 Nat$) (?v1 Nat$)) (or (fun_app$a (less_eq$ ?v0) ?v1) (fun_app$a (less_eq$ ?v1) ?v0)) ))
(assert (forall ((?v0 Nat$)) (fun_app$a (less_eq$ ?v0) ?v0) ))
(assert (forall ((?v0 Nat$) (?v1 Nat$)) (fun_app$a (less_eq$ (fun_app$ (minus$ ?v0) ?v1)) ?v0) ))
(assert (forall ((?v0 Nat$) (?v1 Nat$) (?v2 Nat$)) (=> (fun_app$a (less_eq$ ?v0) ?v1) (fun_app$a (less_eq$ (fun_app$ (minus$ ?v0) ?v2)) (fun_app$ (minus$ ?v1) ?v2))) ))
(assert (forall ((?v0 Nat$) (?v1 Nat$) (?v2 Nat$)) (=> (fun_app$a (less_eq$ ?v0) ?v1) (fun_app$a (less_eq$ (fun_app$ (minus$ ?v2) ?v1)) (fun_app$ (minus$ ?v2) ?v0))) ))
(assert (forall ((?v0 Nat$)) (fun_app$a (less_eq$ ?v0) ?v0) ))
(assert (forall ((?v0 A_b_prod_list$)) (! (=> (fun_app$a (less_eq$ (size$ ?v0)) one$) (= (rotate1$ ?v0) ?v0)) :pattern ((rotate1$ ?v0)))))
(assert (fun_app$a (less_eq$ one$) one$))
(assert (forall ((?v0 A_b_prod_list$) (?v1 Nat$)) (! (=> (fun_app$a (less_eq$ (size$ ?v0)) one$) (= (rotate$ ?v1 ?v0) ?v0)) :pattern ((rotate$ ?v1 ?v0)))))
(assert (forall ((?v0 A_b_prod_list$)) (= (size$ (butlast$ ?v0)) (fun_app$ (minus$ (size$ ?v0)) one$)) ))
(assert (forall ((?v0 A_b_prod_list$)) (= (size$ (tl$ ?v0)) (fun_app$ (minus$ (size$ ?v0)) one$)) ))
(assert (forall ((?v0 A_b_prod_list$) (?v1 A_b_prod$)) (fun_app$a (less_eq$ (count_list$ ?v0 ?v1)) (size$ ?v0)) ))
(assert (= one$ one$))
(assert (forall ((?v0 A_b_prod_list$)) (fun_app$a (less_eq$ (size$ (remdups$ ?v0))) (size$ ?v0)) ))
(assert (forall ((?v0 Nat$) (?v1 Nat$)) (= (= ?v0 ?v1) (and (fun_app$a (less_eq$ ?v0) ?v1) (fun_app$a (less_eq$ ?v1) ?v0))) ))
(assert (forall ((?v0 A_b_prod_list$)) (= (= (size$ (remdups$ ?v0)) (size$ ?v0)) (= (remdups$ ?v0) ?v0)) ))
(assert (forall ((?v0 Nat$) (?v1 A_b_prod_list$)) (= (size$ (rotate$ ?v0 ?v1)) (size$ ?v1)) ))
(assert (forall ((?v0 A_b_prod_list$)) (= (size$ (rotate1$ ?v0)) (size$ ?v0)) ))
(assert (forall ((?v0 A_b_prod_list$)) (= (butlast$ (tl$ ?v0)) (tl$ (butlast$ ?v0))) ))
(assert (forall ((?v0 A_b_prod_list$)) (= (remdups$ (remdups$ ?v0)) (remdups$ ?v0)) ))
(assert (forall ((?v0 Nat$) (?v1 A_b_prod_list$)) (= (rotate1$ (rotate$ ?v0 ?v1)) (rotate$ ?v0 (rotate1$ ?v1))) ))
(assert (forall ((?v0 Nat$)) (fun_app$a (less_eq$ ?v0) ?v0) ))
(assert (forall ((?v0 Nat$) (?v1 Nat$)) (or (fun_app$a (less_eq$ ?v0) ?v1) (fun_app$a (less_eq$ ?v1) ?v0)) ))
(assert (forall ((?v0 Nat$) (?v1 Nat$)) (! (=> (fun_app$a (less_eq$ ?v0) ?v1) (= (fun_app$a (less_eq$ ?v1) ?v0) (= ?v1 ?v0))) :pattern ((fun_app$a (less_eq$ ?v1) ?v0)))))
(assert (forall ((?v0 Nat$) (?v1 Nat$) (?v2 Nat$)) (=> (and (fun_app$a (less_eq$ ?v0) ?v1) (fun_app$a (less_eq$ ?v1) ?v2)) (fun_app$a (less_eq$ ?v0) ?v2)) ))
(assert (forall ((?v0 Nat$) (?v1 Nat$) (?v2 Nat$)) (=> (and (fun_app$a (less_eq$ ?v0) ?v1) (fun_app$a (less_eq$ ?v1) ?v2)) (fun_app$a (less_eq$ ?v0) ?v2)) ))
(assert (forall ((?v0 Nat$) (?v1 Nat$) (?v2 Nat$)) (=> (and (fun_app$a (less_eq$ ?v0) ?v1) (fun_app$a (less_eq$ ?v2) ?v0)) (fun_app$a (less_eq$ ?v2) ?v1)) ))
(assert (forall ((?v0 Nat$) (?v1 Nat$)) (=> (and (fun_app$a (less_eq$ ?v0) ?v1) (fun_app$a (less_eq$ ?v1) ?v0)) (= ?v0 ?v1)) ))
(assert (forall ((?v0 Nat$) (?v1 Nat$)) (=> (and (fun_app$a (less_eq$ ?v0) ?v1) (fun_app$a (less_eq$ ?v1) ?v0)) (= ?v0 ?v1)) ))
(assert (forall ((?v0 Nat$) (?v1 Nat$)) (=> (and (fun_app$a (less_eq$ ?v0) ?v1) (fun_app$a (less_eq$ ?v1) ?v0)) (= ?v1 ?v0)) ))
(assert (forall ((?v0 Nat$) (?v1 Nat_nat_fun$) (?v2 Nat$) (?v3 Nat$)) (=> (and (fun_app$a (less_eq$ ?v0) (fun_app$ ?v1 ?v2)) (and (fun_app$a (less_eq$ ?v2) ?v3) (forall ((?v4 Nat$) (?v5 Nat$)) (=> (fun_app$a (less_eq$ ?v4) ?v5) (fun_app$a (less_eq$ (fun_app$ ?v1 ?v4)) (fun_app$ ?v1 ?v5))) ))) (fun_app$a (less_eq$ ?v0) (fun_app$ ?v1 ?v3))) ))
(assert (forall ((?v0 Nat$) (?v1 Nat$) (?v2 Nat_nat_fun$) (?v3 Nat$)) (=> (and (fun_app$a (less_eq$ ?v0) ?v1) (and (fun_app$a (less_eq$ (fun_app$ ?v2 ?v1)) ?v3) (forall ((?v4 Nat$) (?v5 Nat$)) (=> (fun_app$a (less_eq$ ?v4) ?v5) (fun_app$a (less_eq$ (fun_app$ ?v2 ?v4)) (fun_app$ ?v2 ?v5))) ))) (fun_app$a (less_eq$ (fun_app$ ?v2 ?v0)) ?v3)) ))
(assert (forall ((?v0 Nat$) (?v1 Nat$) (?v2 Nat$)) (=> (and (fun_app$a (less_eq$ ?v0) ?v1) (= ?v1 ?v2)) (fun_app$a (less_eq$ ?v0) ?v2)) ))
(assert (forall ((?v0 Nat$) (?v1 Nat$) (?v2 Nat_nat_fun$) (?v3 Nat$)) (=> (and (fun_app$a (less_eq$ ?v0) ?v1) (and (= (fun_app$ ?v2 ?v1) ?v3) (forall ((?v4 Nat$) (?v5 Nat$)) (=> (fun_app$a (less_eq$ ?v4) ?v5) (fun_app$a (less_eq$ (fun_app$ ?v2 ?v4)) (fun_app$ ?v2 ?v5))) ))) (fun_app$a (less_eq$ (fun_app$ ?v2 ?v0)) ?v3)) ))
(assert (forall ((?v0 Nat$) (?v1 Nat$)) (=> (= ?v0 ?v1) (fun_app$a (less_eq$ ?v0) ?v1)) ))
(assert (forall ((?v0 Nat$) (?v1 Nat$) (?v2 Nat$)) (=> (and (= ?v0 ?v1) (fun_app$a (less_eq$ ?v1) ?v2)) (fun_app$a (less_eq$ ?v0) ?v2)) ))
(assert (forall ((?v0 Nat$) (?v1 Nat_nat_fun$) (?v2 Nat$) (?v3 Nat$)) (=> (and (= ?v0 (fun_app$ ?v1 ?v2)) (and (fun_app$a (less_eq$ ?v2) ?v3) (forall ((?v4 Nat$) (?v5 Nat$)) (=> (fun_app$a (less_eq$ ?v4) ?v5) (fun_app$a (less_eq$ (fun_app$ ?v1 ?v4)) (fun_app$ ?v1 ?v5))) ))) (fun_app$a (less_eq$ ?v0) (fun_app$ ?v1 ?v3))) ))
(assert (forall ((?v0 Nat_nat_bool_fun_fun$) (?v1 Nat$) (?v2 Nat$)) (=> (and (forall ((?v3 Nat$) (?v4 Nat$)) (=> (fun_app$a (less_eq$ ?v3) ?v4) (fun_app$a (fun_app$b ?v0 ?v3) ?v4)) ) (forall ((?v3 Nat$) (?v4 Nat$)) (=> (fun_app$a (fun_app$b ?v0 ?v4) ?v3) (fun_app$a (fun_app$b ?v0 ?v3) ?v4)) )) (fun_app$a (fun_app$b ?v0 ?v1) ?v2)) ))
(assert (forall ((?v0 Nat$) (?v1 Nat$)) (=> (and (=> (fun_app$a (less_eq$ ?v0) ?v1) false) (=> (fun_app$a (less_eq$ ?v1) ?v0) false)) false) ))
(assert (forall ((?v0 Nat$) (?v1 A_b_prod_list$)) (=> (fun_app$a (less_eq$ ?v0) (size$ ?v1)) (= (butlast$ (take$ ?v0 ?v1)) (take$ (fun_app$ (minus$ ?v0) one$) ?v1))) ))
(assert (forall ((?v0 A_b_prod_list$) (?v1 Nat$) (?v2 A_b_prod$)) (= (butlast$ (list_update$ ?v0 ?v1 ?v2)) (ite (= ?v1 (fun_app$ (minus$ (size$ ?v0)) one$)) (butlast$ ?v0) (list_update$ (butlast$ ?v0) ?v1 ?v2))) ))
(assert (forall ((?v0 Nat$) (?v1 A_b_prod$)) (= (tl$ (replicate$ ?v0 ?v1)) (replicate$ (fun_app$ (minus$ ?v0) one$) ?v1)) ))
(assert (forall ((?v0 A_b_prod_list$)) (! (= (butlast$ ?v0) (take$ (fun_app$ (minus$ (size$ ?v0)) one$) ?v0)) :pattern ((butlast$ ?v0)))))
(assert (forall ((?v0 Nat$) (?v1 A_b_prod_list$)) (! (= (rotate$ (suc$ ?v0) ?v1) (rotate1$ (rotate$ ?v0 ?v1))) :pattern ((rotate$ (suc$ ?v0) ?v1)))))
(assert (forall ((?v0 Nat$) (?v1 A_b_prod_list$)) (= (tl$ (take$ ?v0 ?v1)) (take$ (fun_app$ (minus$ ?v0) one$) (tl$ ?v1))) ))
(assert (forall ((?v0 Nat$) (?v1 Nat$)) (= (= (suc$ ?v0) (suc$ ?v1)) (= ?v0 ?v1)) ))
(assert (forall ((?v0 Nat$) (?v1 Nat$)) (= (= (suc$ ?v0) (suc$ ?v1)) (= ?v0 ?v1)) ))
(assert (forall ((?v0 A_b_prod_list$) (?v1 Nat$) (?v2 A_b_prod$) (?v3 A_b_prod$)) (= (list_update$ (list_update$ ?v0 ?v1 ?v2) ?v1 ?v3) (list_update$ ?v0 ?v1 ?v3)) ))
(assert (forall ((?v0 Nat$) (?v1 Nat$)) (! (= (fun_app$a (less_eq$ (suc$ ?v0)) (suc$ ?v1)) (fun_app$a (less_eq$ ?v0) ?v1)) :pattern ((fun_app$a (less_eq$ (suc$ ?v0)) (suc$ ?v1))))))
(assert (forall ((?v0 Nat$) (?v1 Nat$)) (! (= (fun_app$ (minus$ (suc$ ?v0)) (suc$ ?v1)) (fun_app$ (minus$ ?v0) ?v1)) :pattern ((fun_app$ (minus$ (suc$ ?v0)) (suc$ ?v1))))))
(assert (forall ((?v0 Nat$) (?v1 Nat$) (?v2 Nat$)) (= (fun_app$ (minus$ (fun_app$ (minus$ (suc$ ?v0)) ?v1)) (suc$ ?v2)) (fun_app$ (minus$ (fun_app$ (minus$ ?v0) ?v1)) ?v2)) ))
(assert (forall ((?v0 A_b_prod_list$) (?v1 Nat$) (?v2 A_b_prod$)) (= (size$ (list_update$ ?v0 ?v1 ?v2)) (size$ ?v0)) ))
(assert (forall ((?v0 Nat$) (?v1 A_b_prod$)) (= (size$ (replicate$ ?v0 ?v1)) ?v0) ))
(assert (forall ((?v0 Nat$)) (= (fun_app$ (minus$ (suc$ ?v0)) one$) ?v0) ))
(assert (forall ((?v0 A_b_prod_list$) (?v1 Nat$)) (! (=> (fun_app$a (less_eq$ (size$ ?v0)) ?v1) (= (take$ ?v1 ?v0) ?v0)) :pattern ((take$ ?v1 ?v0)))))
(assert (forall ((?v0 A_b_prod_list$) (?v1 Nat$) (?v2 A_b_prod$)) (! (=> (fun_app$a (less_eq$ (size$ ?v0)) ?v1) (= (list_update$ ?v0 ?v1 ?v2) ?v0)) :pattern ((list_update$ ?v0 ?v1 ?v2)))))
(assert (forall ((?v0 Nat$) (?v1 Nat$) (?v2 A_b_prod_list$) (?v3 A_b_prod$)) (=> (fun_app$a (less_eq$ ?v0) ?v1) (= (take$ ?v0 (list_update$ ?v2 ?v1 ?v3)) (take$ ?v0 ?v2))) ))
(assert (forall ((?v0 Nat$) (?v1 A_b_prod_list$)) (= (take$ ?v0 (tl$ ?v1)) (tl$ (take$ (suc$ ?v0) ?v1))) ))
(assert (forall ((?v0 Nat$)) (not (= ?v0 (suc$ ?v0))) ))
(assert (forall ((?v0 Nat$) (?v1 Nat$) (?v2 A_b_prod_list$) (?v3 A_b_prod$) (?v4 A_b_prod$)) (=> (not (= ?v0 ?v1)) (= (list_update$ (list_update$ ?v2 ?v0 ?v3) ?v1 ?v4) (list_update$ (list_update$ ?v2 ?v1 ?v4) ?v0 ?v3))) ))
(assert (forall ((?v0 A_b_prod_list$) (?v1 A_b_prod_list$)) (=> (forall ((?v2 Nat$)) (= (take$ ?v2 ?v0) (take$ ?v2 ?v1)) ) (= ?v0 ?v1)) ))
(assert (forall ((?v0 Nat$) (?v1 Nat$)) (=> (= (suc$ ?v0) (suc$ ?v1)) (= ?v0 ?v1)) ))
(assert (forall ((?v0 Nat$) (?v1 Nat$)) (! (= (fun_app$a (less_eq$ ?v0) (suc$ ?v1)) (or (fun_app$a (less_eq$ ?v0) ?v1) (= ?v0 (suc$ ?v1)))) :pattern ((fun_app$a (less_eq$ ?v0) (suc$ ?v1))))))
(assert (forall ((?v0 Nat$) (?v1 Nat$)) (= (not (fun_app$a (less_eq$ ?v0) ?v1)) (fun_app$a (less_eq$ (suc$ ?v1)) ?v0)) ))
(assert (forall ((?v0 Nat_bool_fun$) (?v1 Nat$)) (=> (forall ((?v2 Nat$)) (=> (forall ((?v3 Nat$)) (=> (fun_app$a (less_eq$ (suc$ ?v3)) ?v2) (fun_app$a ?v0 ?v3)) ) (fun_app$a ?v0 ?v2)) ) (fun_app$a ?v0 ?v1)) ))
(assert (forall ((?v0 Nat$) (?v1 Nat$)) (=> (fun_app$a (less_eq$ (suc$ ?v0)) ?v1) (fun_app$a (less_eq$ ?v0) ?v1)) ))
(assert (forall ((?v0 Nat$) (?v1 Nat$)) (=> (fun_app$a (less_eq$ (suc$ ?v0)) ?v1) (exists ((?v2 Nat$)) (= ?v1 (suc$ ?v2)) )) ))
(assert (forall ((?v0 Nat$) (?v1 Nat$)) (=> (and (fun_app$a (less_eq$ ?v0) (suc$ ?v1)) (and (=> (fun_app$a (less_eq$ ?v0) ?v1) false) (=> (= ?v0 (suc$ ?v1)) false))) false) ))
(assert (forall ((?v0 Nat$) (?v1 Nat$)) (=> (fun_app$a (less_eq$ ?v0) ?v1) (fun_app$a (less_eq$ ?v0) (suc$ ?v1))) ))
(assert (forall ((?v0 Nat$)) (not (fun_app$a (less_eq$ (suc$ ?v0)) ?v0)) ))
(assert (forall ((?v0 Nat_bool_fun$) (?v1 Nat$) (?v2 Nat$)) (=> (and (fun_app$a ?v0 ?v1) (forall ((?v3 Nat$)) (=> (fun_app$a ?v0 (suc$ ?v3)) (fun_app$a ?v0 ?v3)) )) (fun_app$a ?v0 (fun_app$ (minus$ ?v1) ?v2))) ))
(assert (forall ((?v0 Nat_nat_fun$) (?v1 Nat$) (?v2 Nat$)) (=> (and (forall ((?v3 Nat$)) (fun_app$a (less_eq$ (fun_app$ ?v0 (suc$ ?v3))) (fun_app$ ?v0 ?v3)) ) (fun_app$a (less_eq$ ?v1) ?v2)) (fun_app$a (less_eq$ (fun_app$ ?v0 ?v2)) (fun_app$ ?v0 ?v1))) ))
(assert (forall ((?v0 Nat_nat_fun$) (?v1 Nat$) (?v2 Nat$)) (=> (and (forall ((?v3 Nat$)) (fun_app$a (less_eq$ (fun_app$ ?v0 ?v3)) (fun_app$ ?v0 (suc$ ?v3))) ) (fun_app$a (less_eq$ ?v1) ?v2)) (fun_app$a (less_eq$ (fun_app$ ?v0 ?v1)) (fun_app$ ?v0 ?v2))) ))
(assert (forall ((?v0 Nat$) (?v1 Nat$)) (! (=> (fun_app$a (less_eq$ ?v0) ?v1) (= (fun_app$ (minus$ (suc$ ?v1)) ?v0) (suc$ (fun_app$ (minus$ ?v1) ?v0)))) :pattern ((fun_app$ (minus$ (suc$ ?v1)) ?v0)))))
(assert (forall ((?v0 Nat$) (?v1 Nat$)) (! (= (fun_app$ (minus$ ?v0) (suc$ ?v1)) (fun_app$ (minus$ (fun_app$ (minus$ ?v0) one$)) ?v1)) :pattern ((fun_app$ (minus$ ?v0) (suc$ ?v1))))))
(assert (forall ((?v0 Nat_nat_fun$)) (= (antimono$ ?v0) (forall ((?v1 Nat$)) (fun_app$a (less_eq$ (fun_app$ ?v0 (suc$ ?v1))) (fun_app$ ?v0 ?v1)) )) ))
(assert (forall ((?v0 Nat$) (?v1 Nat$) (?v2 Nat$)) (=> (fun_app$a (less_eq$ ?v0) ?v1) (= (fun_app$ (minus$ (suc$ (fun_app$ (minus$ ?v1) ?v0))) ?v2) (fun_app$ (minus$ (suc$ ?v1)) (fun_app$ (plus$ ?v0) ?v2)))) ))
(assert (forall ((?v0 Nat$) (?v1 Nat$) (?v2 Nat$)) (=> (fun_app$a (less_eq$ ?v0) ?v1) (= (fun_app$ (minus$ ?v2) (suc$ (fun_app$ (minus$ ?v1) ?v0))) (fun_app$ (minus$ (fun_app$ (plus$ ?v2) ?v0)) (suc$ ?v1)))) ))
(assert (forall ((?v0 Nat$) (?v1 A_b_prod_list$) (?v2 A_b_prod_list$)) (= (take$ ?v0 (append$ ?v1 ?v2)) (append$ (take$ ?v0 ?v1) (take$ (fun_app$ (minus$ ?v0) (size$ ?v1)) ?v2))) ))
(assert (forall ((?v0 Nat$) (?v1 A_b_prod_list$)) (=> (fun_app$a (less$ ?v0) (size$ ?v1)) (= (take$ ?v0 (butlast$ ?v1)) (take$ ?v0 ?v1))) ))
(assert (forall ((?v0 Nat$) (?v1 Nat$) (?v2 Nat$)) (= (= (fun_app$ (plus$ ?v0) ?v1) (fun_app$ (plus$ ?v2) ?v1)) (= ?v0 ?v2)) ))
(assert (forall ((?v0 Nat$) (?v1 Nat$) (?v2 Nat$)) (= (= (fun_app$ (plus$ ?v0) ?v1) (fun_app$ (plus$ ?v0) ?v2)) (= ?v1 ?v2)) ))
(assert (forall ((?v0 A_b_prod_list$) (?v1 A_b_prod_list$) (?v2 A_b_prod_list$)) (= (= (append$ ?v0 ?v1) (append$ ?v0 ?v2)) (= ?v1 ?v2)) ))
(assert (forall ((?v0 A_b_prod_list$) (?v1 A_b_prod_list$) (?v2 A_b_prod_list$)) (= (= (append$ ?v0 ?v1) (append$ ?v2 ?v1)) (= ?v0 ?v2)) ))
(assert (forall ((?v0 A_b_prod_list$) (?v1 A_b_prod_list$) (?v2 A_b_prod_list$)) (= (append$ (append$ ?v0 ?v1) ?v2) (append$ ?v0 (append$ ?v1 ?v2))) ))
(assert (forall ((?v0 Nat$) (?v1 Nat$) (?v2 Nat$)) (= (fun_app$a (less_eq$ (fun_app$ (plus$ ?v0) ?v1)) (fun_app$ (plus$ ?v0) ?v2)) (fun_app$a (less_eq$ ?v1) ?v2)) ))
(assert (forall ((?v0 Nat$) (?v1 Nat$) (?v2 Nat$)) (= (fun_app$a (less_eq$ (fun_app$ (plus$ ?v0) ?v1)) (fun_app$ (plus$ ?v2) ?v1)) (fun_app$a (less_eq$ ?v0) ?v2)) ))
(assert (forall ((?v0 Nat$) (?v1 Nat$) (?v2 Nat$)) (= (fun_app$a (less$ (fun_app$ (plus$ ?v0) ?v1)) (fun_app$ (plus$ ?v2) ?v1)) (fun_app$a (less$ ?v0) ?v2)) ))
(assert (forall ((?v0 Nat$) (?v1 Nat$) (?v2 Nat$)) (= (fun_app$a (less$ (fun_app$ (plus$ ?v0) ?v1)) (fun_app$ (plus$ ?v0) ?v2)) (fun_app$a (less$ ?v1) ?v2)) ))
(assert (forall ((?v0 Nat$) (?v1 Nat$) (?v2 Nat$)) (= (fun_app$ (minus$ (fun_app$ (plus$ ?v0) ?v1)) (fun_app$ (plus$ ?v2) ?v1)) (fun_app$ (minus$ ?v0) ?v2)) ))
(assert (forall ((?v0 Nat$) (?v1 Nat$) (?v2 Nat$)) (= (fun_app$ (minus$ (fun_app$ (plus$ ?v0) ?v1)) (fun_app$ (plus$ ?v0) ?v2)) (fun_app$ (minus$ ?v1) ?v2)) ))
(assert (forall ((?v0 Nat$) (?v1 Nat$)) (= (fun_app$ (minus$ (fun_app$ (plus$ ?v0) ?v1)) ?v1) ?v0) ))
(assert (forall ((?v0 Nat$) (?v1 Nat$)) (= (fun_app$ (minus$ (fun_app$ (plus$ ?v0) ?v1)) ?v0) ?v1) ))
(assert (forall ((?v0 Nat$) (?v1 Nat$)) (! (= (fun_app$a (less$ (suc$ ?v0)) (suc$ ?v1)) (fun_app$a (less$ ?v0) ?v1)) :pattern ((fun_app$a (less$ (suc$ ?v0)) (suc$ ?v1))))))
(assert (forall ((?v0 Nat$) (?v1 Nat$)) (=> (fun_app$a (less$ ?v0) ?v1) (fun_app$a (less$ (suc$ ?v0)) (suc$ ?v1))) ))
(assert (forall ((?v0 Nat$)) (fun_app$a (less$ ?v0) (suc$ ?v0)) ))
(assert (forall ((?v0 Nat$) (?v1 Nat$)) (! (= (fun_app$ (plus$ ?v0) (suc$ ?v1)) (suc$ (fun_app$ (plus$ ?v0) ?v1))) :pattern ((fun_app$ (plus$ ?v0) (suc$ ?v1))))))
(assert (forall ((?v0 Nat$) (?v1 Nat$) (?v2 Nat$)) (= (fun_app$a (less$ (fun_app$ (plus$ ?v0) ?v1)) (fun_app$ (plus$ ?v0) ?v2)) (fun_app$a (less$ ?v1) ?v2)) ))
(assert (forall ((?v0 Nat$) (?v1 Nat$) (?v2 Nat$)) (= (fun_app$a (less_eq$ (fun_app$ (plus$ ?v0) ?v1)) (fun_app$ (plus$ ?v0) ?v2)) (fun_app$a (less_eq$ ?v1) ?v2)) ))
(assert (forall ((?v0 A_b_prod_list$) (?v1 A_b_prod_list$) (?v2 A_b_prod_list$) (?v3 A_b_prod_list$)) (=> (or (= (size$ ?v0) (size$ ?v1)) (= (size$ ?v2) (size$ ?v3))) (= (= (append$ ?v0 ?v2) (append$ ?v1 ?v3)) (and (= ?v0 ?v1) (= ?v2 ?v3)))) ))
(assert (forall ((?v0 Nat$) (?v1 Nat$) (?v2 Nat$)) (= (fun_app$ (minus$ (fun_app$ (minus$ ?v0) ?v1)) ?v2) (fun_app$ (minus$ ?v0) (fun_app$ (plus$ ?v1) ?v2))) ))
(assert (forall ((?v0 A_b_prod_list$) (?v1 A_b_prod_list$)) (= (size$ (append$ ?v0 ?v1)) (fun_app$ (plus$ (size$ ?v0)) (size$ ?v1))) ))
(assert (forall ((?v0 Nat$) (?v1 Nat$) (?v2 Nat$)) (=> (fun_app$a (less_eq$ ?v0) ?v1) (= (fun_app$ (plus$ (fun_app$ (minus$ ?v1) ?v0)) ?v2) (fun_app$ (minus$ (fun_app$ (plus$ ?v1) ?v2)) ?v0))) ))
(assert (forall ((?v0 Nat$) (?v1 Nat$) (?v2 Nat$)) (=> (fun_app$a (less_eq$ ?v0) ?v1) (= (fun_app$ (plus$ ?v2) (fun_app$ (minus$ ?v1) ?v0)) (fun_app$ (minus$ (fun_app$ (plus$ ?v2) ?v1)) ?v0))) ))
(assert (forall ((?v0 Nat$) (?v1 Nat$) (?v2 Nat$) (?v3 Nat$)) (=> (and (fun_app$a (less_eq$ ?v0) ?v1) (fun_app$a (less$ ?v2) ?v3)) (fun_app$a (less$ (fun_app$ (plus$ ?v0) ?v2)) (fun_app$ (plus$ ?v1) ?v3))) ))
(assert (forall ((?v0 Nat$) (?v1 Nat$) (?v2 Nat$) (?v3 Nat$)) (=> (and (fun_app$a (less$ ?v0) ?v1) (fun_app$a (less_eq$ ?v2) ?v3)) (fun_app$a (less$ (fun_app$ (plus$ ?v0) ?v2)) (fun_app$ (plus$ ?v1) ?v3))) ))
(assert (forall ((?v0 Nat$) (?v1 Nat$) (?v2 Nat$) (?v3 Nat$)) (=> (and (fun_app$a (less_eq$ ?v0) ?v1) (fun_app$a (less$ ?v2) ?v3)) (fun_app$a (less$ (fun_app$ (plus$ ?v0) ?v2)) (fun_app$ (plus$ ?v1) ?v3))) ))
(assert (forall ((?v0 Nat$) (?v1 Nat$) (?v2 Nat$) (?v3 Nat$)) (=> (and (fun_app$a (less$ ?v0) ?v1) (fun_app$a (less_eq$ ?v2) ?v3)) (fun_app$a (less$ (fun_app$ (plus$ ?v0) ?v2)) (fun_app$ (plus$ ?v1) ?v3))) ))
(assert (forall ((?v0 Nat_nat_fun$) (?v1 Nat$) (?v2 Nat$)) (=> (forall ((?v3 Nat$) (?v4 Nat$)) (=> (fun_app$a (less$ ?v3) ?v4) (fun_app$a (less$ (fun_app$ ?v0 ?v3)) (fun_app$ ?v0 ?v4))) ) (fun_app$a (less_eq$ (fun_app$ (plus$ (fun_app$ ?v0 ?v1)) ?v2)) (fun_app$ ?v0 (fun_app$ (plus$ ?v1) ?v2)))) ))
(assert (forall ((?v0 Nat$) (?v1 Nat$)) (fun_app$a (less$ ?v0) (suc$ (fun_app$ (plus$ ?v0) ?v1))) ))
(assert (forall ((?v0 Nat$) (?v1 Nat$)) (fun_app$a (less$ ?v0) (suc$ (fun_app$ (plus$ ?v1) ?v0))) ))
(assert (forall ((?v0 Nat$) (?v1 Nat$)) (=> (fun_app$a (less$ ?v0) ?v1) (exists ((?v2 Nat$)) (= ?v1 (suc$ (fun_app$ (plus$ ?v0) ?v2))) )) ))
(assert (forall ((?v0 Nat_nat_fun$) (?v1 Nat$) (?v2 Nat$)) (=> (forall ((?v3 Nat$)) (fun_app$a (less$ (fun_app$ ?v0 ?v3)) (fun_app$ ?v0 (suc$ ?v3))) ) (= (fun_app$a (less$ (fun_app$ ?v0 ?v1)) (fun_app$ ?v0 ?v2)) (fun_app$a (less$ ?v1) ?v2))) ))
(assert (forall ((?v0 Nat_nat_fun$) (?v1 Nat$) (?v2 Nat$)) (=> (and (forall ((?v3 Nat$)) (fun_app$a (less$ (fun_app$ ?v0 ?v3)) (fun_app$ ?v0 (suc$ ?v3))) ) (fun_app$a (less$ ?v1) ?v2)) (fun_app$a (less$ (fun_app$ ?v0 ?v1)) (fun_app$ ?v0 ?v2))) ))
(assert (forall ((?v0 Nat$) (?v1 Nat$)) (= (fun_app$a (less$ ?v0) ?v1) (exists ((?v2 Nat$)) (= ?v1 (suc$ (fun_app$ (plus$ ?v0) ?v2))) )) ))
(assert (forall ((?v0 Nat$) (?v1 Nat$) (?v2 A_b_prod$)) (= (replicate$ (fun_app$ (plus$ ?v0) ?v1) ?v2) (append$ (replicate$ ?v0 ?v2) (replicate$ ?v1 ?v2))) ))
(assert (forall ((?v0 Nat$) (?v1 Nat$) (?v2 Nat$)) (= (= (fun_app$ (plus$ ?v0) ?v1) (fun_app$ (plus$ ?v2) ?v1)) (= ?v0 ?v2)) ))
(assert (forall ((?v0 Nat$) (?v1 Nat$) (?v2 Nat$)) (= (= (fun_app$ (plus$ ?v0) ?v1) (fun_app$ (plus$ ?v0) ?v2)) (= ?v1 ?v2)) ))
(assert (forall ((?v0 Nat$) (?v1 Nat$) (?v2 Nat$)) (= (fun_app$ (plus$ (fun_app$ (plus$ ?v0) ?v1)) ?v2) (fun_app$ (plus$ ?v0) (fun_app$ (plus$ ?v1) ?v2))) ))
(assert (forall ((?v0 Nat$) (?v1 Nat$) (?v2 Nat$)) (= (fun_app$ (plus$ (fun_app$ (plus$ ?v0) ?v1)) ?v2) (fun_app$ (plus$ ?v0) (fun_app$ (plus$ ?v1) ?v2))) ))
(assert (forall ((?v0 Nat$) (?v1 Nat$) (?v2 Nat$)) (= (fun_app$ (plus$ ?v0) (fun_app$ (plus$ ?v1) ?v2)) (fun_app$ (plus$ ?v1) (fun_app$ (plus$ ?v0) ?v2))) ))
(assert (forall ((?v0 Nat$) (?v1 Nat$)) (= (fun_app$ (plus$ ?v0) ?v1) (fun_app$ (plus$ ?v1) ?v0)) ))
(assert (forall ((?v0 A_b_prod_list$) (?v1 A_b_prod_list$) (?v2 A_b_prod_list$) (?v3 A_b_prod_list$)) (= (= (append$ ?v0 ?v1) (append$ ?v2 ?v3)) (exists ((?v4 A_b_prod_list$)) (or (and (= ?v0 (append$ ?v2 ?v4)) (= (append$ ?v4 ?v1) ?v3)) (and (= (append$ ?v0 ?v4) ?v2) (= ?v1 (append$ ?v4 ?v3)))) )) ))
(assert (forall ((?v0 Nat$) (?v1 Nat$)) (= (not (= ?v0 ?v1)) (or (fun_app$a (less$ ?v0) ?v1) (fun_app$a (less$ ?v1) ?v0))) ))
(assert (forall ((?v0 Nat$) (?v1 Nat$) (?v2 Nat_nat_bool_fun_fun$)) (=> (and (=> (fun_app$a (less$ ?v0) ?v1) (fun_app$a (fun_app$b ?v2 ?v1) ?v0)) (and (=> (= ?v0 ?v1) (fun_app$a (fun_app$b ?v2 ?v1) ?v0)) (=> (fun_app$a (less$ ?v1) ?v0) (fun_app$a (fun_app$b ?v2 ?v1) ?v0)))) (fun_app$a (fun_app$b ?v2 ?v1) ?v0)) ))
(assert (forall ((?v0 Nat_bool_fun$) (?v1 Nat$)) (=> (forall ((?v2 Nat$)) (=> (not (fun_app$a ?v0 ?v2)) (exists ((?v3 Nat$)) (and (fun_app$a (less$ ?v3) ?v2) (not (fun_app$a ?v0 ?v3))) )) ) (fun_app$a ?v0 ?v1)) ))
(assert (forall ((?v0 Nat_bool_fun$) (?v1 Nat$)) (=> (forall ((?v2 Nat$)) (=> (forall ((?v3 Nat$)) (=> (fun_app$a (less$ ?v3) ?v2) (fun_app$a ?v0 ?v3)) ) (fun_app$a ?v0 ?v2)) ) (fun_app$a ?v0 ?v1)) ))
(assert (forall ((?v0 A_b_prod_list$) (?v1 A_b_prod_list$) (?v2 A_b_prod_list$) (?v3 A_b_prod_list$) (?v4 A_b_prod_list$)) (=> (and (= (append$ ?v0 ?v1) ?v2) (= ?v3 (append$ ?v1 ?v4))) (= (append$ ?v0 ?v3) (append$ ?v2 ?v4))) ))
(assert (forall ((?v0 Nat$) (?v1 Nat$) (?v2 Nat$)) (=> (= (fun_app$ (plus$ ?v0) ?v1) (fun_app$ (plus$ ?v2) ?v1)) (= ?v0 ?v2)) ))
(assert (forall ((?v0 Nat$) (?v1 Nat$) (?v2 Nat$)) (=> (= (fun_app$ (plus$ ?v0) ?v1) (fun_app$ (plus$ ?v0) ?v2)) (= ?v1 ?v2)) ))
(assert (forall ((?v0 Nat$) (?v1 Nat$) (?v2 Nat$) (?v3 Nat$)) (=> (and (= ?v0 ?v1) (= ?v2 ?v3)) (= (fun_app$ (plus$ ?v0) ?v2) (fun_app$ (plus$ ?v1) ?v3))) ))
(assert (forall ((?v0 Nat$) (?v1 Nat$) (?v2 Nat$) (?v3 Nat$)) (=> (and (= ?v0 ?v1) (fun_app$a (less$ ?v2) ?v3)) (fun_app$a (less$ (fun_app$ (plus$ ?v0) ?v2)) (fun_app$ (plus$ ?v1) ?v3))) ))
(assert (forall ((?v0 Nat$) (?v1 Nat$) (?v2 Nat$) (?v3 Nat$)) (=> (and (fun_app$a (less$ ?v0) ?v1) (= ?v2 ?v3)) (fun_app$a (less$ (fun_app$ (plus$ ?v0) ?v2)) (fun_app$ (plus$ ?v1) ?v3))) ))
(assert (forall ((?v0 Nat$) (?v1 Nat$) (?v2 Nat$) (?v3 Nat$)) (=> (and (fun_app$a (less$ ?v0) ?v1) (fun_app$a (less$ ?v2) ?v3)) (fun_app$a (less$ (fun_app$ (plus$ ?v0) ?v2)) (fun_app$ (plus$ ?v1) ?v3))) ))
(assert (forall ((?v0 Nat$) (?v1 Nat$) (?v2 Nat$)) (=> (fun_app$a (less$ (fun_app$ (plus$ ?v0) ?v1)) (fun_app$ (plus$ ?v2) ?v1)) (fun_app$a (less$ ?v0) ?v2)) ))
(assert (forall ((?v0 Nat$) (?v1 Nat$) (?v2 Nat$)) (=> (fun_app$a (less$ (fun_app$ (plus$ ?v0) ?v1)) (fun_app$ (plus$ ?v0) ?v2)) (fun_app$a (less$ ?v1) ?v2)) ))
(assert (forall ((?v0 Nat$) (?v1 Nat$) (?v2 Nat$)) (=> (fun_app$a (less$ (fun_app$ (plus$ ?v0) ?v1)) ?v2) (fun_app$a (less$ ?v0) ?v2)) ))
(assert (forall ((?v0 Nat$) (?v1 Nat$) (?v2 Nat$) (?v3 Nat$)) (=> (and (fun_app$a (less$ ?v0) ?v1) (= (fun_app$ (plus$ ?v2) ?v1) (fun_app$ (plus$ ?v0) ?v3))) (fun_app$a (less$ ?v2) ?v3)) ))
(assert (forall ((?v0 Nat$) (?v1 Nat$) (?v2 Nat$) (?v3 Nat$)) (=> (and (fun_app$a (less$ ?v0) ?v1) (fun_app$a (less$ ?v2) ?v3)) (fun_app$a (less$ (fun_app$ (plus$ ?v0) ?v2)) (fun_app$ (plus$ ?v1) ?v3))) ))
(assert (forall ((?v0 Nat$) (?v1 Nat$) (?v2 Nat$) (?v3 Nat$)) (=> (and (fun_app$a (less$ ?v0) ?v1) (fun_app$a (less$ ?v2) ?v3)) (fun_app$a (less$ (fun_app$ (plus$ ?v0) ?v2)) (fun_app$ (plus$ ?v1) ?v3))) ))
(assert (forall ((?v0 Nat$) (?v1 Nat$) (?v2 Nat$)) (=> (fun_app$a (less$ ?v0) ?v1) (fun_app$a (less$ (fun_app$ (plus$ ?v0) ?v2)) (fun_app$ (plus$ ?v1) ?v2))) ))
(assert (forall ((?v0 Nat$) (?v1 Nat$) (?v2 Nat$)) (=> (fun_app$a (less$ ?v0) ?v1) (fun_app$a (less$ (fun_app$ (plus$ ?v2) ?v0)) (fun_app$ (plus$ ?v2) ?v1))) ))
(assert (forall ((?v0 Nat$) (?v1 Nat$) (?v2 Nat$)) (=> (fun_app$a (less$ ?v0) ?v1) (fun_app$a (less$ (fun_app$ (plus$ ?v0) ?v2)) (fun_app$ (plus$ ?v1) ?v2))) ))
(assert (forall ((?v0 Nat$) (?v1 Nat$) (?v2 Nat$)) (=> (fun_app$a (less$ ?v0) ?v1) (fun_app$a (less$ ?v0) (fun_app$ (plus$ ?v2) ?v1))) ))
(assert (forall ((?v0 Nat$) (?v1 Nat$) (?v2 Nat$)) (=> (fun_app$a (less$ ?v0) ?v1) (fun_app$a (less$ ?v0) (fun_app$ (plus$ ?v1) ?v2))) ))
(assert (forall ((?v0 Nat$) (?v1 Nat$)) (=> (fun_app$a (less$ ?v0) ?v1) (not (= ?v0 ?v1))) ))
(assert (forall ((?v0 Nat$) (?v1 Nat$)) (=> (fun_app$a (less$ ?v0) ?v1) (not (= ?v1 ?v0))) ))
(assert (forall ((?v0 Nat$)) (=> (fun_app$a (less$ ?v0) ?v0) false) ))
(assert (forall ((?v0 Nat$) (?v1 Nat$)) (=> (and (not (= ?v0 ?v1)) (and (=> (fun_app$a (less$ ?v0) ?v1) false) (=> (fun_app$a (less$ ?v1) ?v0) false))) false) ))
(assert (forall ((?v0 Nat$) (?v1 Nat$)) (not (fun_app$a (less$ (fun_app$ (plus$ ?v0) ?v1)) ?v1)) ))
(assert (forall ((?v0 Nat$) (?v1 Nat$)) (not (fun_app$a (less$ (fun_app$ (plus$ ?v0) ?v1)) ?v0)) ))
(assert (forall ((?v0 Nat$)) (not (fun_app$a (less$ ?v0) ?v0)) ))
(assert (forall ((?v0 Nat$) (?v1 Nat$) (?v2 Nat$)) (= (fun_app$a (less$ ?v0) (fun_app$ (minus$ ?v1) ?v2)) (fun_app$a (less$ (fun_app$ (plus$ ?v0) ?v2)) ?v1)) ))
(assert (forall ((?v0 Nat$) (?v1 Nat$)) (=> (not (fun_app$a (less$ ?v0) ?v1)) (= (fun_app$ (plus$ ?v1) (fun_app$ (minus$ ?v0) ?v1)) ?v0)) ))
(assert (forall ((?v0 Nat$) (?v1 Nat$)) (= (not (= ?v0 ?v1)) (or (fun_app$a (less$ ?v0) ?v1) (fun_app$a (less$ ?v1) ?v0))) ))
(assert (forall ((?v0 Nat$) (?v1 Nat$)) (= (not (fun_app$a (less$ ?v0) ?v1)) (or (fun_app$a (less$ ?v1) ?v0) (= ?v0 ?v1))) ))
(assert (forall ((?v0 Nat$) (?v1 Nat$)) (=> (and (=> (fun_app$a (less$ ?v0) ?v1) false) (and (=> (= ?v0 ?v1) false) (=> (fun_app$a (less$ ?v1) ?v0) false))) false) ))
(assert (forall ((?v0 Nat_bool_fun$) (?v1 Nat$)) (=> (forall ((?v2 Nat$)) (=> (forall ((?v3 Nat$)) (=> (fun_app$a (less$ ?v3) ?v2) (fun_app$a ?v0 ?v3)) ) (fun_app$a ?v0 ?v2)) ) (fun_app$a ?v0 ?v1)) ))
(assert (forall ((?v0 Nat$) (?v1 Nat_nat_fun$) (?v2 Nat$) (?v3 Nat$)) (=> (and (= ?v0 (fun_app$ ?v1 ?v2)) (and (fun_app$a (less$ ?v2) ?v3) (forall ((?v4 Nat$) (?v5 Nat$)) (=> (fun_app$a (less$ ?v4) ?v5) (fun_app$a (less$ (fun_app$ ?v1 ?v4)) (fun_app$ ?v1 ?v5))) ))) (fun_app$a (less$ ?v0) (fun_app$ ?v1 ?v3))) ))
(assert (forall ((?v0 Nat$) (?v1 Nat$) (?v2 Nat$)) (=> (and (= ?v0 ?v1) (fun_app$a (less$ ?v1) ?v2)) (fun_app$a (less$ ?v0) ?v2)) ))
(assert (forall ((?v0 Nat$) (?v1 Nat$)) (=> (and (fun_app$a (less$ ?v0) ?v1) (=> (not false) (fun_app$a (less$ ?v1) ?v0))) false) ))
(assert (forall ((?v0 Nat$) (?v1 Nat$) (?v2 Nat_nat_fun$) (?v3 Nat$)) (=> (and (fun_app$a (less$ ?v0) ?v1) (and (= (fun_app$ ?v2 ?v1) ?v3) (forall ((?v4 Nat$) (?v5 Nat$)) (=> (fun_app$a (less$ ?v4) ?v5) (fun_app$a (less$ (fun_app$ ?v2 ?v4)) (fun_app$ ?v2 ?v5))) ))) (fun_app$a (less$ (fun_app$ ?v2 ?v0)) ?v3)) ))
(assert (forall ((?v0 Nat$) (?v1 Nat$) (?v2 Nat$)) (=> (and (fun_app$a (less$ ?v0) ?v1) (= ?v1 ?v2)) (fun_app$a (less$ ?v0) ?v2)) ))
(assert (forall ((?v0 Nat$) (?v1 Nat$) (?v2 Nat_nat_fun$) (?v3 Nat$)) (=> (and (fun_app$a (less$ ?v0) ?v1) (and (fun_app$a (less$ (fun_app$ ?v2 ?v1)) ?v3) (forall ((?v4 Nat$) (?v5 Nat$)) (=> (fun_app$a (less$ ?v4) ?v5) (fun_app$a (less$ (fun_app$ ?v2 ?v4)) (fun_app$ ?v2 ?v5))) ))) (fun_app$a (less$ (fun_app$ ?v2 ?v0)) ?v3)) ))
(assert (forall ((?v0 Nat$) (?v1 Nat_nat_fun$) (?v2 Nat$) (?v3 Nat$)) (=> (and (fun_app$a (less$ ?v0) (fun_app$ ?v1 ?v2)) (and (fun_app$a (less$ ?v2) ?v3) (forall ((?v4 Nat$) (?v5 Nat$)) (=> (fun_app$a (less$ ?v4) ?v5) (fun_app$a (less$ (fun_app$ ?v1 ?v4)) (fun_app$ ?v1 ?v5))) ))) (fun_app$a (less$ ?v0) (fun_app$ ?v1 ?v3))) ))
(assert (forall ((?v0 Nat$) (?v1 Nat$) (?v2 Nat$)) (=> (and (fun_app$a (less$ ?v0) ?v1) (fun_app$a (less$ ?v2) ?v0)) (fun_app$a (less$ ?v2) ?v1)) ))
(assert (forall ((?v0 Nat$) (?v1 Nat$) (?v2 Nat$)) (=> (and (fun_app$a (less$ ?v0) ?v1) (fun_app$a (less$ ?v1) ?v2)) (fun_app$a (less$ ?v0) ?v2)) ))
(assert (forall ((?v0 Nat$) (?v1 Nat$) (?v2 Nat$)) (=> (and (fun_app$a (less$ ?v0) ?v1) (fun_app$a (less$ ?v1) ?v2)) (fun_app$a (less$ ?v0) ?v2)) ))
(assert (forall ((?v0 Nat$) (?v1 Nat$)) (=> (and (fun_app$a (less$ ?v0) ?v1) (fun_app$a (less$ ?v1) ?v0)) false) ))
(assert (forall ((?v0 Nat$) (?v1 Nat$)) (=> (and (fun_app$a (less$ ?v0) ?v1) (fun_app$a (less$ ?v1) ?v0)) false) ))
(assert (forall ((?v0 Nat$) (?v1 Nat$)) (=> (and (fun_app$a (less$ ?v0) ?v1) (fun_app$a (less$ ?v1) ?v0)) false) ))
(assert (forall ((?v0 Nat$) (?v1 Nat$)) (=> (fun_app$a (less$ ?v0) ?v1) (= (= ?v1 ?v0) false)) ))
(assert (forall ((?v0 Nat$) (?v1 Nat$)) (=> (fun_app$a (less$ ?v0) ?v1) (= (= ?v0 ?v1) false)) ))
(assert (forall ((?v0 Nat$) (?v1 Nat$) (?v2 Bool)) (=> (fun_app$a (less$ ?v0) ?v1) (= (=> (fun_app$a (less$ ?v1) ?v0) ?v2) true)) ))
(assert (forall ((?v0 Nat$) (?v1 Nat$)) (=> (fun_app$a (less$ ?v0) ?v1) (= (not (fun_app$a (less$ ?v1) ?v0)) true)) ))
(assert (forall ((?v0 Nat$) (?v1 Nat$)) (=> (fun_app$a (less$ ?v0) ?v1) (not (= ?v1 ?v0))) ))
(assert (forall ((?v0 Nat$) (?v1 Nat$)) (=> (fun_app$a (less$ ?v0) ?v1) (not (= ?v0 ?v1))) ))
(assert (forall ((?v0 Nat$) (?v1 Nat$)) (=> (fun_app$a (less$ ?v0) ?v1) (not (= ?v0 ?v1))) ))
(assert (forall ((?v0 Nat$) (?v1 Nat$)) (=> (fun_app$a (less$ ?v0) ?v1) (not (fun_app$a (less$ ?v1) ?v0))) ))
(assert (forall ((?v0 Nat$) (?v1 Nat$)) (=> (and (not (= ?v0 ?v1)) (and (=> (fun_app$a (less$ ?v0) ?v1) false) (=> (fun_app$a (less$ ?v1) ?v0) false))) false) ))
(assert (forall ((?v0 Nat$) (?v1 Nat$)) (=> (not (fun_app$a (less$ ?v0) ?v1)) (= (not (fun_app$a (less$ ?v1) ?v0)) (= ?v1 ?v0))) ))
(assert (forall ((?v0 Nat$) (?v1 Nat$)) (or (fun_app$a (less$ ?v0) ?v1) (or (= ?v0 ?v1) (fun_app$a (less$ ?v1) ?v0))) ))
(assert (forall ((?v0 Nat$)) (exists ((?v1 Nat$)) (fun_app$a (less$ ?v0) ?v1) ) ))
(assert (forall ((?v0 Nat$)) (not (fun_app$a (less$ ?v0) ?v0)) ))
(assert (forall ((?v0 Nat$)) (not (fun_app$a (less$ ?v0) ?v0)) ))
(assert (forall ((?v0 Nat$) (?v1 Nat$) (?v2 Nat$)) (=> (fun_app$a (less_eq$ ?v0) ?v1) (= (fun_app$a (less$ (fun_app$ (minus$ ?v1) ?v0)) ?v2) (fun_app$a (less$ ?v1) (fun_app$ (plus$ ?v2) ?v0)))) ))
(assert (forall ((?v0 Nat$) (?v1 A_b_prod_list$) (?v2 A_b_prod_list$) (?v3 A_b_prod$)) (=> (fun_app$a (less$ ?v0) (size$ ?v1)) (= (list_update$ (append$ ?v1 ?v2) ?v0 ?v3) (append$ (list_update$ ?v1 ?v0 ?v3) ?v2))) ))
(assert (forall ((?v0 Nat$) (?v1 Nat$) (?v2 Nat$)) (=> (fun_app$a (less_eq$ ?v0) ?v1) (fun_app$a (less_eq$ (fun_app$ (plus$ ?v2) ?v0)) (fun_app$ (plus$ ?v2) ?v1))) ))
(assert (forall ((?v0 Nat$) (?v1 Nat$) (?v2 Nat$)) (=> (fun_app$a (less_eq$ ?v0) ?v1) (fun_app$a (less_eq$ (fun_app$ (plus$ ?v0) ?v2)) (fun_app$ (plus$ ?v1) ?v2))) ))
(assert (forall ((?v0 Nat$) (?v1 Nat$) (?v2 Nat$) (?v3 Nat$)) (=> (and (fun_app$a (less_eq$ ?v0) ?v1) (fun_app$a (less_eq$ ?v2) ?v3)) (fun_app$a (less_eq$ (fun_app$ (plus$ ?v0) ?v2)) (fun_app$ (plus$ ?v1) ?v3))) ))
(assert (forall ((?v0 Nat$) (?v1 Nat$) (?v2 Nat$)) (=> (fun_app$a (less_eq$ (fun_app$ (plus$ ?v0) ?v1)) (fun_app$ (plus$ ?v0) ?v2)) (fun_app$a (less_eq$ ?v1) ?v2)) ))
(assert (forall ((?v0 Nat$) (?v1 Nat$) (?v2 Nat$)) (=> (fun_app$a (less_eq$ (fun_app$ (plus$ ?v0) ?v1)) (fun_app$ (plus$ ?v2) ?v1)) (fun_app$a (less_eq$ ?v0) ?v2)) ))
(assert (forall ((?v0 Nat$) (?v1 Nat$) (?v2 Nat$) (?v3 Nat$)) (=> (and (fun_app$a (less_eq$ ?v0) ?v1) (fun_app$a (less_eq$ ?v2) ?v3)) (fun_app$a (less_eq$ (fun_app$ (plus$ ?v0) ?v2)) (fun_app$ (plus$ ?v1) ?v3))) ))
(assert (forall ((?v0 Nat$) (?v1 Nat$) (?v2 Nat$) (?v3 Nat$)) (=> (and (fun_app$a (less_eq$ ?v0) ?v1) (= ?v2 ?v3)) (fun_app$a (less_eq$ (fun_app$ (plus$ ?v0) ?v2)) (fun_app$ (plus$ ?v1) ?v3))) ))
(assert (forall ((?v0 Nat$) (?v1 Nat$) (?v2 Nat$) (?v3 Nat$)) (=> (and (= ?v0 ?v1) (fun_app$a (less_eq$ ?v2) ?v3)) (fun_app$a (less_eq$ (fun_app$ (plus$ ?v0) ?v2)) (fun_app$ (plus$ ?v1) ?v3))) ))
(assert (forall ((?v0 Nat$) (?v1 Nat$)) (= (fun_app$a (less_eq$ ?v0) ?v1) (exists ((?v2 Nat$)) (= ?v1 (fun_app$ (plus$ ?v0) ?v2)) )) ))
(assert (forall ((?v0 Nat$) (?v1 Nat$) (?v2 Nat$)) (= (fun_app$ (minus$ (fun_app$ (minus$ ?v0) ?v1)) ?v2) (fun_app$ (minus$ ?v0) (fun_app$ (plus$ ?v1) ?v2))) ))
(assert (forall ((?v0 Nat$) (?v1 Nat$) (?v2 Nat$)) (=> (= (fun_app$ (plus$ ?v0) ?v1) ?v2) (= ?v0 (fun_app$ (minus$ ?v2) ?v1))) ))
(assert (forall ((?v0 Nat$) (?v1 Nat$)) (or (fun_app$a (less_eq$ ?v0) ?v1) (fun_app$a (less$ ?v1) ?v0)) ))
(assert (forall ((?v0 Nat$) (?v1 Nat$)) (=> (not (fun_app$a (less_eq$ ?v0) ?v1)) (fun_app$a (less$ ?v1) ?v0)) ))
(assert (forall ((?v0 Nat$) (?v1 Nat$)) (=> (not (fun_app$a (less$ ?v0) ?v1)) (fun_app$a (less_eq$ ?v1) ?v0)) ))
(assert (forall ((?v0 Nat$) (?v1 Nat$)) (! (=> (not (fun_app$a (less$ ?v0) ?v1)) (= (fun_app$a (less_eq$ ?v0) ?v1) (= ?v0 ?v1))) :pattern ((fun_app$a (less_eq$ ?v0) ?v1)))))
(assert (forall ((?v0 Nat$) (?v1 Nat$)) (=> (and (not (= ?v0 ?v1)) (fun_app$a (less_eq$ ?v0) ?v1)) (fun_app$a (less$ ?v0) ?v1)) ))
(check-sat)
(exit)

